qbf_easy_train/easy_3243_SAT.qdimacs
p cnf 28 73
a 10 12 14 0
e 1 2 3 4 5 6 7 8 9 11 13 15 16 17 18 19 20 21 22 23 24 25 26 27 28 0
-3 -1 0
-3 2 0
1 -2 3 0
-3 4 -5 0
3 -4 -5 0
-3 -4 5 0
3 4 5 0
-7 -5 0
-7 -6 0
5 6 7 0
-8 3 0
-8 -4 0
-3 4 8 0
9 8 0
9 -1 0
-8 1 -9 0
11 -9 0
11 -10 0
9 10 -11 0
-4 -8 -12 0
4 8 -12 0
-4 8 12 0
4 -8 12 0
13 -10 0
13 -12 0
10 12 -13 0
-16 14 0
-16 -15 0
-14 15 16 0
-17 13 0
-17 16 0
-13 -16 17 0
-18 -11 0
-18 17 0
11 -17 18 0
19 7 0
19 18 0
-7 -18 -19 0
-20 -9 0
-20 -4 0
9 4 20 0
-21 -5 0
-21 -1 0
5 1 21 0
2 -4 -22 0
-2 4 -22 0
2 4 22 0
-2 -4 22 0
23 -21 0
23 22 0
21 -22 -23 0
24 20 0
24 -23 0
-20 23 -24 0
-25 5 -26 0
25 -5 -26 0
-25 -5 26 0
25 5 26 0
-27 24 0
-27 -26 0
-24 26 27 0
19 -27 -28 0
-19 27 -28 0
19 27 28 0
-19 -27 28 0
26 -8 13 0
-10 -7 11 -26 28 0
27 -4 -26 -24 19 -14 0
-6 -21 7 -13 17 -4 0
28 19 14 -17 0
-22 -3 19 15 -26 0
8 3 7 -22 -25 4 0
28 0
