sat_easy_train/easy_3243_SAT.dimacs
p cnf 134 446
-4 -2 0
-4 3 0
2 -3 4 0
4 5 -6 0
-4 -5 -6 0
4 -5 6 0
-4 5 6 0
7 -1 0
7 -6 0
1 6 -7 0
5 -8 -9 0
-5 8 -9 0
5 8 9 0
-5 -8 9 0
10 -9 0
10 -5 0
9 5 -10 0
-13 -11 0
-13 -12 0
11 12 13 0
14 -10 0
14 -13 0
10 13 -14 0
-16 14 0
-16 -15 0
-14 15 16 0
-17 16 0
-17 4 0
-16 -4 17 0
-18 7 0
-18 -17 0
-7 17 18 0
-19 7 0
-19 10 0
-7 -10 19 0
20 18 0
20 19 0
-18 -19 -20 0
22 -21 0
22 -5 0
21 5 -22 0
23 22 0
23 -12 0
-22 12 -23 0
-25 1 0
-25 24 0
-1 -24 25 0
-27 -2 0
-27 26 0
2 -26 27 0
27 -28 -29 0
-27 28 -29 0
27 28 29 0
-27 -28 29 0
-25 29 -30 0
25 -29 -30 0
-25 -29 30 0
25 29 30 0
23 -30 -31 0
-23 30 -31 0
23 30 31 0
-23 -30 31 0
32 15 0
32 -31 0
-15 31 -32 0
-33 -24 0
-33 -21 0
24 21 33 0
33 -13 -34 0
-33 13 -34 0
33 13 34 0
-33 -13 34 0
-35 -29 0
-35 34 0
29 -34 35 0
-36 -32 0
-36 35 0
32 -35 36 0
-37 -20 0
-37 -36 0
20 36 37 0
38 3 0
38 -3 0
-39 -38 0
-39 24 0
38 -24 39 0
-40 33 0
-40 39 0
-33 -39 40 0
40 25 -41 0
-40 -25 -41 0
40 -25 41 0
-40 25 41 0
42 -41 0
42 7 0
41 -7 -42 0
-43 28 0
-43 1 0
-28 -1 43 0
44 43 0
44 -43 0
-44 -6 -45 0
44 6 -45 0
-44 6 45 0
44 -6 45 0
46 -42 0
46 45 0
42 -45 -46 0
-47 -32 0
-47 31 0
32 -31 47 0
27 22 -48 0
-27 -22 -48 0
27 -22 48 0
-27 22 48 0
49 47 0
49 48 0
-47 -48 -49 0
50 46 0
50 -49 0
-46 49 -50 0
-27 22 -52 0
27 -22 -52 0
-27 -22 52 0
27 22 52 0
53 51 0
53 -52 0
-51 52 -53 0
-54 23 0
-54 -26 0
-23 26 54 0
-55 53 0
-55 -54 0
-53 54 55 0
-56 23 0
-56 25 0
-23 -25 56 0
-57 -55 0
-57 56 0
55 -56 57 0
13 25 -58 0
-13 -25 -58 0
13 -25 58 0
-13 25 58 0
-59 -16 0
-59 -40 0
16 40 59 0
40 59 -60 0
-40 -59 -60 0
40 -59 60 0
-40 59 60 0
-61 -60 0
-61 21 0
60 -21 61 0
62 -58 0
62 61 0
58 -61 -62 0
-64 62 0
-64 63 0
-62 -63 64 0
65 -57 0
65 -64 0
57 64 -65 0
-66 50 0
-66 -65 0
-50 65 66 0
-67 -58 0
-67 12 0
58 -12 67 0
-68 -43 0
-68 3 0
43 -3 68 0
69 -67 0
69 -68 0
67 68 -69 0
-70 -66 0
-70 -69 0
66 69 70 0
-71 -25 -72 0
71 25 -72 0
-71 25 72 0
71 -25 72 0
72 -6 -73 0
-72 6 -73 0
72 6 73 0
-72 -6 73 0
-4 25 -74 0
4 -25 -74 0
-4 -25 74 0
4 25 74 0
75 -73 0
75 74 0
73 -74 -75 0
-70 -75 -76 0
70 75 -76 0
-70 75 76 0
70 -75 76 0
-77 37 0
-77 -76 0
-37 76 77 0
78 -11 0
78 -9 0
11 9 -78 0
-79 -21 0
-79 11 0
21 -11 79 0
-78 79 -80 0
78 -79 -80 0
-78 -79 80 0
78 79 80 0
81 29 0
81 -25 0
-29 25 -81 0
82 -80 0
82 -81 0
80 81 -82 0
-83 -18 0
-83 11 0
18 -11 83 0
84 -55 0
84 -27 0
55 27 -84 0
-85 -83 0
-85 -84 0
83 84 85 0
86 6 0
86 -2 0
-6 2 -86 0
-87 51 0
-87 19 0
-51 -19 87 0
88 86 0
88 87 0
-86 -87 -88 0
89 -85 0
89 88 0
85 -88 -89 0
-90 79 0
-90 34 0
-79 -34 90 0
91 89 0
91 90 0
-89 -90 -91 0
8 39 -93 0
-8 -39 -93 0
8 -39 93 0
-8 39 93 0
94 -92 0
94 93 0
92 -93 -94 0
-95 91 0
-95 94 0
-91 -94 95 0
96 82 0
96 -95 0
-82 95 -96 0
97 14 0
97 -34 0
-14 34 -97 0
-98 -71 0
-98 10 0
71 -10 98 0
97 98 -99 0
-97 -98 -99 0
97 -98 99 0
-97 98 99 0
58 -17 -100 0
-58 17 -100 0
58 17 100 0
-58 -17 100 0
101 68 0
101 -29 0
-68 29 -101 0
-52 101 -102 0
52 -101 -102 0
-52 -101 102 0
52 101 102 0
103 -102 0
103 16 0
102 -16 -103 0
104 -31 0
104 59 0
31 -59 -104 0
105 39 0
105 -22 0
-39 22 -105 0
-106 105 0
-106 2 0
-105 -2 106 0
-107 -104 0
-107 106 0
104 -106 107 0
108 103 0
108 -107 0
-103 107 -108 0
109 -100 0
109 -108 0
100 108 -109 0
110 99 0
110 -109 0
-99 109 -110 0
-18 51 -111 0
18 -51 -111 0
-18 -51 111 0
18 51 111 0
22 -98 -112 0
-22 98 -112 0
22 98 112 0
-22 -98 112 0
113 111 0
113 112 0
-111 -112 -113 0
-114 27 0
-114 -11 0
-27 11 114 0
33 51 -115 0
-33 -51 -115 0
33 -51 115 0
-33 51 115 0
-40 -56 -116 0
40 56 -116 0
-40 56 116 0
40 -56 116 0
-117 -115 0
-117 116 0
115 -116 117 0
118 -22 0
118 -92 0
22 92 -118 0
119 -58 0
119 29 0
58 -29 -119 0
119 -28 -120 0
-119 28 -120 0
119 28 120 0
-119 -28 120 0
-118 -120 -121 0
118 120 -121 0
-118 120 121 0
118 -120 121 0
117 -121 -122 0
-117 121 -122 0
117 121 122 0
-117 -121 122 0
-123 114 0
-123 122 0
-114 -122 123 0
-113 123 -124 0
113 -123 -124 0
-113 -123 124 0
113 123 124 0
-125 -71 0
-125 11 0
71 -11 125 0
-126 6 0
-126 125 0
-6 -125 126 0
127 43 0
127 -4 0
-43 4 -127 0
126 -127 -128 0
-126 127 -128 0
126 127 128 0
-126 -127 128 0
119 59 -129 0
-119 -59 -129 0
119 -59 129 0
-119 59 129 0
-128 -129 -130 0
128 129 -130 0
-128 129 130 0
128 -129 130 0
-131 124 0
-131 -130 0
-124 130 131 0
-110 131 -132 0
110 -131 -132 0
-110 -131 132 0
110 131 132 0
-96 -132 -133 0
96 132 -133 0
-96 132 133 0
96 -132 133 0
-77 -133 -134 0
77 133 -134 0
-77 133 134 0
77 -133 134 0
-107 -62 129 -40 30 0
108 -123 -104 24 0
-31 72 5 0
-37 36 -19 -124 0
127 13 100 0
-118 -13 116 -70 111 127 0
109 8 -101 -16 76 0
3 92 -50 0
103 -69 111 32 -88 0
-31 -58 111 0
16 -52 -32 0
43 -8 -104 -79 0
51 -47 0
89 -62 48 -132 -97 0
66 1 50 -54 0
-1 8 32 0
-81 -102 0
14 129 -63 61 -78 -133 0
17 -52 -131 108 -120 -35 0
24 -128 0
-106 10 0
-54 -22 -118 116 32 0
-101 133 0
-56 9 126 104 0
80 125 103 -85 -83 0
-98 26 -127 -7 0
-119 32 109 51 -30 -133 0
51 34 -53 -122 -61 0
106 108 30 -47 0
38 26 93 -39 9 -53 0
-54 59 122 14 0
-15 3 -7 0
-86 -79 41 -120 -125 0
-92 -16 -120 0
66 114 -132 0
-119 42 -60 -48 -57 0
123 116 -25 0
65 104 0
64 -118 0
-28 -90 -62 17 49 97 0
-115 29 33 -111 0
27 -35 -82 -31 102 81 0
-77 108 31 125 81 0
-77 -89 24 0
-133 -12 0
-122 130 -61 65 -73 0
68 -75 49 45 0
-76 -24 0
84 3 -105 -35 -97 0
-119 -26 72 -84 99 54 0
-86 3 -13 -100 0
21 26 46 54 -114 0
42 68 -70 -76 94 107 0
-123 44 -130 45 102 0
-73 39 9 22 0
-124 8 -57 75 0
61 84 -64 -104 0
50 8 82 131 0
134 0
